Version identifier: 22.1.0.0 | 2022-03-09 | 1a383f8ce
CPXPARAM_Threads                                 1
CPXPARAM_MIP_Strategy_VariableSelect             3
CPXPARAM_TimeLimit                               600
Retaining values of one MIP start for possible repair.
Tried aggregator 2 times.
MIP Presolve eliminated 40 rows and 1 columns.
MIP Presolve added 36 rows and 9 columns.
MIP Presolve modified 51 coefficients.
Aggregator did 9 substitutions.
Reduced MIP has 1807 rows, 6000 columns, and 109837 nonzeros.
Reduced MIP has 6000 binaries, 0 generals, 0 SOSs, and 0 indicators.
Presolve time = 0.16 sec. (204.49 ticks)
Found incumbent of value 1.000000 after 0.21 sec. (225.11 ticks)
Probing time = 0.02 sec. (18.14 ticks)
Tried aggregator 1 time.
Detecting symmetries...
MIP Presolve modified 13 coefficients.
Reduced MIP has 1807 rows, 6000 columns, and 110084 nonzeros.
Reduced MIP has 6000 binaries, 0 generals, 0 SOSs, and 0 indicators.
Presolve time = 0.12 sec. (157.54 ticks)
Probing time = 0.02 sec. (18.17 ticks)
Clique table members: 1194.
MIP emphasis: balance optimality and feasibility.
MIP search method: dynamic search.
Parallel mode: none, using 1 thread.
Root relaxation solution time = 1.28 sec. (1551.75 ticks)

        Nodes                                         Cuts/
   Node  Left     Objective  IInf  Best Integer    Best Bound    ItCnt     Gap

*     0+    0                            1.0000    45150.0000              --- 
      0     0      300.0000  1302        1.0000      300.0000     4473     --- 
      0     0      300.0000  1054        1.0000      Cuts: 12    10153     --- 
      0     0      300.0000  1187        1.0000      Cuts: 23    12904     --- 
      0     0      300.0000  1220        1.0000      Cuts: 31    17740     --- 
*     0+    0                          239.0000      300.0000            25.52%
*     0+    0                          260.0000      300.0000            15.38%
      0     0        cutoff            260.0000      300.0000    17740   15.38%
Repair heuristic succeeded.
Detecting symmetries...
      0     2      300.0000   877      260.0000      300.0000    17740   15.38%
Elapsed time = 63.10 sec. (67160.81 ticks, tree = 0.01 MB, solutions = 3)
      2     2      300.0000  1206      260.0000      300.0000    23458   15.38%
      3     3      300.0000  1226      260.0000      300.0000    30153   15.38%
      4     4      300.0000  1202      260.0000      300.0000    30366   15.38%
      5     5      300.0000  1276      260.0000      300.0000    40885   15.38%
      6     6      300.0000  1207      260.0000      300.0000    40907   15.38%
      7     7      300.0000  1269      260.0000      300.0000    46965   15.38%
      8     8      300.0000  1208      260.0000      300.0000    46972   15.38%
      9     9      300.0000  1168      260.0000      300.0000    47467   15.38%
     10    10      300.0000  1272      260.0000      300.0000    47869   15.38%
     12    12      300.0000  1172      260.0000      300.0000    48179   15.38%
Elapsed time = 79.72 sec. (85044.78 ticks, tree = 0.10 MB, solutions = 3)
     15    15      300.0000  1207      260.0000      300.0000    48683   15.38%
     17    17      300.0000  1133      260.0000      300.0000    48992   15.38%
     18    18      300.0000  1240      260.0000      300.0000    55086   15.38%
     20    20      300.0000  1125      260.0000      300.0000    56290   15.38%
     22    21      300.0000  1239      260.0000      300.0000    57877   15.38%
     25    24      300.0000  1224      260.0000      300.0000    57985   15.38%
     28    27      300.0000  1207      260.0000      300.0000    58490   15.38%
     29    28      300.0000  1234      260.0000      300.0000    60713   15.38%
     30    29      300.0000  1207      260.0000      300.0000    60729   15.38%
     32    31      300.0000  1122      260.0000      300.0000    62677   15.38%
Elapsed time = 95.40 sec. (102289.98 ticks, tree = 0.41 MB, solutions = 3)
     34    33      300.0000  1153      260.0000      300.0000    65035   15.38%
     36    35      300.0000  1175      260.0000      300.0000    66784   15.38%
     39    38      300.0000  1130      260.0000      300.0000    66948   15.38%
     42    40      300.0000  1157      260.0000      300.0000    70396   15.38%
     44    42      300.0000  1074      260.0000      300.0000    71435   15.38%
     45    43      300.0000   987      260.0000      300.0000    82572   15.38%
     46    44      300.0000   895      260.0000      300.0000    89663   15.38%
     47    44      299.8524  1038      260.0000      300.0000   101797   15.38%
     50    46      300.0000   887      260.0000      300.0000   108052   15.38%
     51    47      300.0000   988      260.0000      300.0000   117896   15.38%
Elapsed time = 116.73 sec. (125609.30 ticks, tree = 0.66 MB, solutions = 3)
     52    48      300.0000   870      260.0000      300.0000   118523   15.38%
     54    50      300.0000   892      260.0000      300.0000   119782   15.38%
     56    52      300.0000   864      260.0000      300.0000   125227   15.38%
     58    52      300.0000   881      260.0000      300.0000   126058   15.38%
     60    54      300.0000   895      260.0000      300.0000   136255   15.38%
     61    55      300.0000   881      260.0000      300.0000   142943   15.38%
     62    55      300.0000   888      260.0000      300.0000   153073   15.38%
     64    56      299.7747  1034      260.0000      300.0000   162741   15.38%
     66    57      299.0000  1119      260.0000      300.0000   190973   15.38%
     68    59      300.0000   949      260.0000      300.0000   202107   15.38%
Elapsed time = 143.11 sec. (153755.38 ticks, tree = 0.84 MB, solutions = 3)
     69    60      300.0000   906      260.0000      300.0000   210142   15.38%
     73    61    infeasible            260.0000      300.0000   211723   15.38%
     75    62      299.7849  1022      260.0000      300.0000   216272   15.38%
     76    62      299.8333  1072      260.0000      300.0000   221408   15.38%
     78    64      300.0000   890      260.0000      300.0000   223193   15.38%
     80    65      299.0000   934      260.0000      300.0000   231325   15.38%
     82    66      299.9790  1084      260.0000      300.0000   235747   15.38%
     84    68      299.7995   964      260.0000      300.0000   239965   15.38%
     88    69      299.0000  1088      260.0000      300.0000   247060   15.38%
     90    70      299.0000   930      260.0000      300.0000   256588   15.38%
Elapsed time = 158.59 sec. (170716.35 ticks, tree = 1.01 MB, solutions = 3)
     91    71      300.0000   886      260.0000      300.0000   267418   15.38%
     93    73      300.0000   872      260.0000      300.0000   268020   15.38%
     94    74      299.8580   964      260.0000      300.0000   274358   15.38%
     95    74      299.9375  1106      260.0000      300.0000   278970   15.38%
     98    76      299.0000  1102      260.0000      300.0000   283170   15.38%
    100    77      299.0000  1108      260.0000      300.0000   288342   15.38%
    102    78      299.7468  1032      260.0000      300.0000   293843   15.38%
    104    80      299.8683   960      260.0000      300.0000   299343   15.38%
    106    81      299.7796  1087      260.0000      300.0000   310692   15.38%
    109    82      300.0000   858      260.0000      300.0000   312212   15.38%
Elapsed time = 177.36 sec. (190640.32 ticks, tree = 1.18 MB, solutions = 3)
    110    82      299.0000   989      260.0000      300.0000   316474   15.38%
    113    85      300.0000   840      260.0000      300.0000   317412   15.38%
    115    86      300.0000   831      260.0000      300.0000   322540   15.38%
    116    86      299.9315  1087      260.0000      300.0000   328169   15.38%
    118    88      299.8177   981      260.0000      300.0000   334113   15.38%
    120    89      299.0000  1090      260.0000      300.0000   339262   15.38%
    122    90      299.0000  1102      260.0000      300.0000   363701   15.38%
    123    91      300.0000   858      260.0000      300.0000   367099   15.38%
    124    92      300.0000   866      260.0000      300.0000   375718   15.38%
    125    92      299.9667  1093      260.0000      300.0000   397614   15.38%
Elapsed time = 204.55 sec. (219402.24 ticks, tree = 1.35 MB, solutions = 3)
    127    93      299.0000  1126      260.0000      300.0000   399602   15.38%
    129    94      300.0000   884      260.0000      300.0000   401814   15.38%
    130    94      299.0000  1010      260.0000      300.0000   403232   15.38%
    132    95      299.0000  1117      260.0000      300.0000   405506   15.38%
    134    97      300.0000   882      260.0000      300.0000   406877   15.38%
    135    98      299.8407  1025      260.0000      300.0000   409200   15.38%
    137    99      299.0000  1056      260.0000      300.0000   413119   15.38%
    138   100      300.0000   751      260.0000      300.0000   420550   15.38%
    140   101      299.0000   943      260.0000      300.0000   423141   15.38%
    142   103      299.0000  1077      260.0000      300.0000   430430   15.38%
Elapsed time = 239.40 sec. (256454.11 ticks, tree = 1.51 MB, solutions = 3)
    143   103      299.0000  1012      260.0000      300.0000   433246   15.38%
    144   104      300.0000   795      260.0000      300.0000   441323   15.38%
    147   106      299.7920  1016      260.0000      300.0000   444218   15.38%
    149   107      299.0000   931      260.0000      300.0000   446464   15.38%
    151   108      299.9904  1067      260.0000      300.0000   448050   15.38%
    153   110      300.0000   856      260.0000      300.0000   449002   15.38%
    155   111      299.0000  1044      260.0000      300.0000   452429   15.38%
    157   113      300.0000   789      260.0000      300.0000   454234   15.38%
    158   113      299.0000  1079      260.0000      300.0000   456608   15.38%
    160   114      299.0000   924      260.0000      300.0000   459767   15.38%
Elapsed time = 258.27 sec. (277313.58 ticks, tree = 1.67 MB, solutions = 3)
    163   116      299.0000  1097      260.0000      300.0000   462454   15.38%
    166   118      299.0000  1038      260.0000      300.0000   465542   15.38%
    168   119      300.0000   824      260.0000      300.0000   467967   15.38%
    171   119      299.8975  1021      260.0000      300.0000   472261   15.38%
    173   120      299.0000  1076      260.0000      300.0000   474594   15.38%
    175   121      299.7479  1007      260.0000      300.0000   478767   15.38%
    178   123      299.9370  1025      260.0000      300.0000   481702   15.38%
    180   124      299.0000   954      260.0000      300.0000   484881   15.38%
    182   125      299.0000  1082      260.0000      300.0000   487851   15.38%
    189   130      300.0000   819      260.0000      300.0000   493520   15.38%
Elapsed time = 286.58 sec. (308470.30 ticks, tree = 1.92 MB, solutions = 3)
    192   131      299.8161   981      260.0000      300.0000   499614   15.38%
    197   134      299.0000   885      260.0000      300.0000   508540   15.38%
    200   136      300.0000   792      260.0000      300.0000   512040   15.38%
    206   140      300.0000   825      260.0000      300.0000   520155   15.38%
    214   146      299.9324   919      260.0000      300.0000   529240   15.38%
    221   151      300.0000   829      260.0000      300.0000   535803   15.38%
    227   156      300.0000   844      260.0000      300.0000   543547   15.38%
    230   157      299.0000  1160      260.0000      300.0000   548672   15.38%
    236   161      300.0000   828      260.0000      300.0000   556577   15.38%
    239   162      300.0000   827      260.0000      300.0000   568283   15.38%
Elapsed time = 326.24 sec. (353191.66 ticks, tree = 2.46 MB, solutions = 3)
    246   167      299.9071   932      260.0000      300.0000   576506   15.38%
    251   169      299.0000  1052      260.0000      300.0000   585201   15.38%
    257   173      300.0000   832      260.0000      300.0000   592570   15.38%
    264   176      299.0000   971      260.0000      300.0000   599633   15.38%
    270   180      299.0000  1138      260.0000      300.0000   606313   15.38%
    275   182      299.0000  1033      260.0000      300.0000   615327   15.38%
    281   186      300.0000   847      260.0000      300.0000   622043   15.38%
    287   188      299.0000  1058      260.0000      300.0000   630599   15.38%
    293   192      300.0000   852      260.0000      300.0000   637621   15.38%
    299   195      299.8480  1056      260.0000      300.0000   647469   15.38%
Elapsed time = 364.40 sec. (397653.47 ticks, tree = 3.01 MB, solutions = 3)
    307   199      299.0000  1054      260.0000      300.0000   655733   15.38%
    314   205      300.0000   868      260.0000      300.0000   662078   15.38%
    319   207      300.0000   758      260.0000      300.0000   669860   15.38%
    322   208      299.8381  1034      260.0000      300.0000   677214   15.38%
    327   211      300.0000   727      260.0000      300.0000   684717   15.38%
    331   214      300.0000   751      260.0000      300.0000   689885   15.38%
    338   220      300.0000   758      260.0000      300.0000   696271   15.38%
    344   223      300.0000   780      260.0000      300.0000   704557   15.38%
    350   226      299.0000  1144      260.0000      300.0000   710400   15.38%
    356   230      299.1250  1046      260.0000      300.0000   718480   15.38%
Elapsed time = 404.03 sec. (443036.23 ticks, tree = 3.59 MB, solutions = 3)
    360   231      300.0000   780      260.0000      300.0000   724891   15.38%
    368   235      300.0000   775      260.0000      300.0000   731929   15.38%
    375   238      299.0000   944      260.0000      300.0000   740693   15.38%
    380   242      299.0000   825      260.0000      300.0000   743855   15.38%
    382   243      300.0000   808      260.0000      300.0000   755276   15.38%
    389   248      300.0000   801      260.0000      300.0000   761045   15.38%
    395   251      300.0000   816      260.0000      300.0000   768223   15.38%
    400   254      300.0000   814      260.0000      300.0000   772750   15.38%
    408   259      299.9904  1087      260.0000      300.0000   780087   15.38%
    415   264      300.0000   838      260.0000      300.0000   786701   15.38%
Elapsed time = 450.79 sec. (494685.07 ticks, tree = 4.15 MB, solutions = 3)
    421   267      299.8604  1058      260.0000      300.0000   794459   15.38%
    426   269      299.8553  1024      260.0000      300.0000   802044   15.38%
    432   272      299.0000  1052      260.0000      300.0000   810055   15.38%
    440   280      299.0000   988      260.0000      300.0000   814405   15.38%
    446   282      298.3333   975      260.0000      300.0000   823061   15.38%
    456   289      299.0000   895      260.0000      300.0000   828738   15.38%
    466   293      299.0000   923      260.0000      300.0000   834623   15.38%
    476   298      298.1429  1015      260.0000      300.0000   840278   15.38%
    483   302      299.0000   919      260.0000      300.0000   844550   15.38%
    490   305      298.0000   873      260.0000      300.0000   849963   15.38%
Elapsed time = 488.04 sec. (537185.62 ticks, tree = 4.86 MB, solutions = 3)
    497   310      297.0000   964      260.0000      300.0000   859531   15.38%
    500   312      297.0000   964      260.0000      300.0000   869554   15.38%
    507   318      296.0000   888      260.0000      300.0000   877068   15.38%
    515   323      294.0000   751      260.0000      300.0000   884171   15.38%
    521   329      294.0000   740      260.0000      300.0000   886031   15.38%
    535   336      293.0000   621      260.0000      300.0000   891737   15.38%
    543   342      293.0000   706      260.0000      300.0000   900717   15.38%
    552   348      291.0000   554      260.0000      300.0000   908053   15.38%
    571   352      291.0000   481      260.0000      300.0000   917639   15.38%
    591   352      291.0000   504      260.0000      300.0000   929149   15.38%
Elapsed time = 526.68 sec. (577045.74 ticks, tree = 5.63 MB, solutions = 3)
    613   354      291.0000   517      260.0000      300.0000   940203   15.38%
    617   352      299.0000  1124      260.0000      300.0000   960118   15.38%
    626   357      299.0000   807      260.0000      300.0000   966010   15.38%
    633   361      299.0000   783      260.0000      300.0000   973030   15.38%
    640   365      299.0000   808      260.0000      300.0000   980631   15.38%
    647   368      298.0000   981      260.0000      300.0000   989387   15.38%
    653   371      299.0000   837      260.0000      300.0000   994632   15.38%
    661   374      299.0000   811      260.0000      300.0000  1001697   15.38%
    669   378      299.0000   822      260.0000      300.0000  1008902   15.38%
    676   384      299.0000   788      260.0000      300.0000  1014959   15.38%
Elapsed time = 574.56 sec. (629239.46 ticks, tree = 6.17 MB, solutions = 3)
    683   389      299.0000   741      260.0000      300.0000  1022654   15.38%
    690   391      297.0000  1055      260.0000      300.0000  1030930   15.38%
    697   396      297.9294   867      260.0000      300.0000  1038529   15.38%
Starting limited solution polishing.
    705   401      298.0000   689      260.0000      300.0000  1051269   15.38%
    712   403      298.0000   777      260.0000      300.0000  1057873   15.38%

Clique cuts applied:  26
Cover cuts applied:  1
Zero-half cuts applied:  13

Root node processing (before b&c):
  Real time             =   63.03 sec. (67100.55 ticks)
Sequential b&c:
  Real time             =  536.98 sec. (589751.88 ticks)
                          ------------
Total (root+branch&cut) =  600.01 sec. (656852.43 ticks)
Primal:	260
Dual:	300
Status:	Feasible
Time:	600.03
Sequence:
	13
	1
	15
	7
	10
	5
	1
	15
	7
	10
	0
	5
	2
	10
	4
	13
	5
	15
	2
	15
	5
	10
	6
	10
	7
	10
	5
	10
	0
	10
	4
	8
	10
	5
	15
	3
	10
	5
	0
	10
	7
	15
	0
	15
	3
	15
	5
	10
	8
	10
	4
	10
	0
	15
	2
	15
	5
	10
	4
	10
	5
	10
	2
	15
	5
	3
	5
	15
	2
	15
	5
	11
	7
	15
	0
	10
	5
	15
	2
	15
	4
	13
	0
	15
	7
	10
	4
	15
	2
	5
	5
	10
	4
	15
	0
	5
	15
	2
	15
	5
	12
	0
	15
	7
	10
	5
	13
	4
	15
	2
	15
	5
	3
	15
	5
	10
	5
	4
	10
	0
	15
	5
	11
	7
	15
	0
	10
	5
	4
	10
	8
	10
	0
	10
	7
	15
	0
	15
	7
	10
	5
	12
	0
	10
	7
	10
	5
	10
	7
	0
	15
	0
	15
	7
	1
	10
	0
	15
	7
	0
	15
	4
	10
	7
	10
	5
	12
	5
	10
	7
	15
	1
	15
	5
	10
	7
	10
	0
	15
	7
	10
	5
	15
	1
	15
	7
	10
	5
	15
	3
	15
	0
	15
	5
	10
	7
	10
	0
	15
	0
	15
	2
	15
	0
	7
	10
	6
	15
	0
	15
	7
	10
	0
	6
	10
	7
	15
	0
	5
	15
	2
	15
	5
	11
	7
	10
	0
	15
	5
	10
	4
	0
	10
	8
	10
	4
	15
	0
	5
	2
	15
	4
	13
	0
	15
	7
	10
	0
	17
	0
	15
	2
	15
	0
	15
	2
	15
	4
	13
	5
